100
100
80
80
80
79
79
78
77
76
76
75
75
75
75
73
73
73
73
73
72
71
71
70
70
70
70
70
70
68
65
62
62
62
62
62
61
61
60
60
60
59
59
59
59
58
58
57
57
56
56
55
54
54
54
53
53
51
50
50
48
48
47
47
47
45
43
41
41
40
37
35
35
34
32
31
29
28
28
27
26
25
25
25
24
24
24
21
21
20
19
19
18
17
17
17
17
13
13
12
11
10
